outputs/case_18.model.txt
invest_in_futures = False
adjustment_extension_times = 0
invest_in_bill_finance = False
insurance_is_property = False
investment_approved = True
futures_is_leveraged_trader = False
bank_is_trust_investment = False
investment_without_approval_penalty = False
investment_made = False
authority_order_adjustment = False
invest_in_foreign_financial_institution_approved = False
insurance_is_agent = False
insurance_is_broker = False
invest_in_bank = False
capital_reduction_approved = True
invest_in_other_financial_related_approved = False
futures_is_advisor = False
violate_law = True
authority_opposition = False
business_days_since_application = 0
adjustment_period_years = 0
investment_in_1_to_9 = False
invest_in_credit_card = False
futures_is_broker = False
impair_sound_operation = True
investment_in_10_or_11 = True
invest_in_insurance = False
subsidiary_investment_exceed_limit = False
adjustment_extension_years_per_time = 0
futures_is_trust = False
subsidiary_business_investment = True
invest_in_securities = False
bank_is_professional = False
invest_in_fhc = False
insurance_is_reinsurance = False
invest_in_trust = False
futures_is_manager = False
subsidiary_business_management = True
securities_is_trust = False
bank_is_commercial = False
subsidiary_capital_reduced = False
securities_is_broker = False
penalty_imposed = True
securities_is_advisor = False
invest_in_venture_capital = True
subsidiary_business_exceed_limit = False
insurance_is_life = False
internal_control_system_established = True
investment_approval_scope = True
investment_without_approval_prohibited = True
bank_type_valid = False
insurance_type_valid = False
securities_type_valid = False
fhc_officer_manager_venture_penalty = False
fhc_officer_not_manager_of_venture_invested = True
investment_approval_timing_ok = True
internal_control_established = True
internal_control_executed = True
penalty = False
violate_articles = False
violation_penalty_conditions = True
subsidiary_capital_reduction_approval = True
internal_control_not_established_or_executed_penalty = False
adjustment_period_valid = True
penalty_imposed_for_violation = True
subsidiary_business_scope_ok = True
subsidiary_capital_reduction_without_approval_penalty = False
fhc_officer_is_manager_of_venture_invested = False
internal_control_system_executed = True
adjustment_ordered = True
subsidiary_business_or_investment_exceed_limit = False
futures_type_valid = False